NAME: Oliver-30
TYPE: TSP
COMMENT: From I. M. Oliver, D. J. Smith and J. R. C. Holland, “A study of permutation crossover operators on the travelling salesman problem,” in Proceedings of the Second International Conference on Genetic Algorithms on Genetic algorithms and their application, 1987, pp.  224-230 Made available by Steve Dower https://stevedower.id.au/research/oliver-30 The shortest cycle length is 423.741 when using the exact distance between each city. If each distance is rounded to the nearest integer the shortest cycle length is 420.
DIMENSION: 30
EDGE_WEIGHT_TYPE: EUC_2D
NODE_COORD_TYPE: TWOD_COORDS
NODE_COORD_SECTION
1 54 67
2 54 62
3 37 84
4 41 94
5 2 99
6 7 64
7 25 62
8 22 60
9 18 54
10 4 50
11 13 40
12 18 40
13 24 42
14 25 38
15 44 35
16 41 26
17 45 21
18 58 35
19 62 32
20 82 7
21 91 38
22 83 46
23 71 44
24 64 60
25 68 58
26 83 69
27 87 76
28 74 78
29 71 71
30 58 69
TOUR_SECTION
1 3 4 5 6 7 8 9 10 11 12 13 14 15 16 17 18 19 20 21 22 23 25 24 26 27 28 29 30 2 -1
1 2 3 4 5 6 7 8 9 10 11 12 13 14 15 16 17 18 19 20 21 22 23 24 25 26 27 28 29 30 -1
-1
EOF
